TCS_Benchmarks/redos_fix/regexlib2_output_distinct_252_251_96_0.smt2
(set-logic QF_S)
(declare-const x String)
(assert (str.in.re x (re.inter  (re.++ (re.opt (re.range "\u{30}" "\u{31}") ) (re.++ (re.opt (re.range "\u{30}" "\u{31}") ) (re.opt (re.range "\u{30}" "\u{31}") )))  (re.++  (re.union  (re.range "\u{30}" "\u{39}")  (re.++ (re.range "\u{30}" "\u{39}")   (re.range "\u{30}" "\u{39}"))) (re.++  (re.union  (re.range "\u{30}" "\u{39}")  (re.++ (re.range "\u{30}" "\u{39}")   (re.range "\u{30}" "\u{39}")))  (re.union  (re.range "\u{30}" "\u{39}")  (re.++ (re.range "\u{30}" "\u{39}")   (re.range "\u{30}" "\u{39}"))))) )))
(check-sat)
(get-model)