TCS_Benchmarks/redos_fix/regexlib2_output_distinct_252_251_96_0.txt
([0-1]?){3}
(\d{1,2}){3}